20
500 500 500 
313 305 260
292 222 225 
330 253 313 
212 256 345 
132 189 345 
149 296 189 
294 137 292 
225 345 292 
345 220 225 
337 177 330 
189 300 330 
234 321 225 
335 272 337 
354 244 149 
149 169 149 
355 165 234 
260 220 345 
210 241 355 
194 372 330 
287 134 212
gcut6_3d
